7226
5071
8660
10142
3238
3184
2406
9541
441
2409
4529
4210
9352
1940
4686
7598
8450
8571
5388
1753
5382
3485
9865
551
2876
4267
9689
1208
3371
814
492
6854
6385
4342
10153
6896
9677
3260
7844
8302
4730
9675
9995
7411
1803
8226
10119
1830
7943
7394
2890
